10	5
0	3	10	1	2
1	1	9
2	1	3
3	3	4	8	7
4	1	5
5	1	6
6	1	11
7	1	11
8	1	11
9	1	11
10	1	11
11	0
0	0	0	0	0	0	0
1	3	0	0	1	2	0
2	5	5	0	0	1	0
3	5	5	0	0	0	1
4	8	4	2	2	0	4
5	6	0	5	2	3	0
6	7	4	4	2	0	0
7	10	4	0	0	0	4
8	8	0	0	0	3	0
9	9	0	0	5	5	2
10	4	1	1	0	4	0
11	0	0	0	0	0	0
5	5	5	5	5
